c FILE: n200d20/random-n200-d20-6.col

p edge 200 3980
e 1 8
e 1 9
e 1 12
e 1 14
e 1 16
e 1 17
e 1 21
e 1 22
e 1 24
e 1 29
e 1 31
e 1 34
e 1 44
e 1 46
e 1 52
e 1 60
e 1 62
e 1 63
e 1 70
e 1 71
e 1 73
e 1 84
e 1 88
e 1 90
e 1 91
e 1 99
e 1 103
e 1 109
e 1 113
e 1 123
e 1 136
e 1 153
e 1 162
e 1 163
e 1 166
e 1 184
e 1 190
e 1 194
e 1 197
e 1 200
e 2 5
e 2 7
e 2 10
e 2 11
e 2 17
e 2 28
e 2 38
e 2 40
e 2 41
e 2 45
e 2 49
e 2 57
e 2 58
e 2 59
e 2 60
e 2 61
e 2 62
e 2 64
e 2 66
e 2 70
e 2 71
e 2 73
e 2 76
e 2 80
e 2 84
e 2 93
e 2 94
e 2 95
e 2 96
e 2 97
e 2 98
e 2 102
e 2 110
e 2 113
e 2 116
e 2 119
e 2 122
e 2 124
e 2 128
e 2 132
e 2 143
e 2 144
e 2 146
e 2 147
e 2 152
e 2 155
e 2 156
e 2 157
e 2 158
e 2 170
e 2 171
e 2 185
e 2 188
e 2 189
e 2 197
e 2 199
e 3 4
e 3 5
e 3 10
e 3 12
e 3 14
e 3 15
e 3 19
e 3 21
e 3 25
e 3 26
e 3 27
e 3 33
e 3 34
e 3 51
e 3 55
e 3 59
e 3 63
e 3 64
e 3 66
e 3 70
e 3 75
e 3 77
e 3 79
e 3 80
e 3 84
e 3 88
e 3 92
e 3 93
e 3 98
e 3 99
e 3 103
e 3 105
e 3 107
e 3 122
e 3 123
e 3 125
e 3 131
e 3 137
e 3 139
e 3 141
e 3 148
e 3 152
e 3 156
e 3 162
e 3 167
e 3 170
e 3 171
e 3 173
e 3 175
e 3 177
e 3 179
e 3 187
e 3 189
e 4 15
e 4 16
e 4 20
e 4 21
e 4 24
e 4 32
e 4 36
e 4 39
e 4 44
e 4 45
e 4 48
e 4 50
e 4 55
e 4 79
e 4 82
e 4 94
e 4 99
e 4 107
e 4 116
e 4 123
e 4 125
e 4 126
e 4 130
e 4 141
e 4 150
e 4 151
e 4 156
e 4 165
e 4 167
e 4 170
e 4 175
e 4 177
e 4 180
e 4 182
e 4 187
e 4 191
e 4 193
e 4 198
e 5 9
e 5 13
e 5 17
e 5 25
e 5 33
e 5 34
e 5 37
e 5 63
e 5 67
e 5 74
e 5 75
e 5 76
e 5 77
e 5 84
e 5 86
e 5 91
e 5 93
e 5 96
e 5 98
e 5 103
e 5 105
e 5 111
e 5 118
e 5 122
e 5 123
e 5 124
e 5 126
e 5 128
e 5 129
e 5 131
e 5 143
e 5 144
e 5 149
e 5 158
e 5 167
e 5 170
e 5 172
e 5 179
e 5 194
e 5 197
e 5 198
e 6 17
e 6 18
e 6 21
e 6 22
e 6 37
e 6 38
e 6 39
e 6 41
e 6 44
e 6 47
e 6 50
e 6 56
e 6 59
e 6 66
e 6 70
e 6 71
e 6 72
e 6 74
e 6 77
e 6 78
e 6 84
e 6 86
e 6 87
e 6 107
e 6 114
e 6 118
e 6 121
e 6 122
e 6 123
e 6 124
e 6 132
e 6 143
e 6 146
e 6 149
e 6 157
e 6 172
e 6 174
e 6 175
e 6 184
e 6 185
e 6 186
e 6 190
e 6 192
e 6 195
e 6 196
e 7 9
e 7 10
e 7 23
e 7 24
e 7 41
e 7 49
e 7 50
e 7 56
e 7 58
e 7 59
e 7 62
e 7 63
e 7 67
e 7 72
e 7 82
e 7 86
e 7 99
e 7 100
e 7 102
e 7 103
e 7 105
e 7 112
e 7 116
e 7 127
e 7 131
e 7 133
e 7 138
e 7 146
e 7 149
e 7 150
e 7 152
e 7 153
e 7 155
e 7 174
e 7 177
e 7 195
e 8 11
e 8 12
e 8 13
e 8 15
e 8 20
e 8 24
e 8 25
e 8 27
e 8 40
e 8 41
e 8 42
e 8 47
e 8 51
e 8 62
e 8 69
e 8 78
e 8 84
e 8 89
e 8 93
e 8 97
e 8 99
e 8 100
e 8 108
e 8 111
e 8 119
e 8 123
e 8 124
e 8 130
e 8 141
e 8 145
e 8 157
e 8 159
e 8 164
e 8 166
e 8 167
e 8 178
e 8 182
e 8 196
e 9 16
e 9 18
e 9 20
e 9 21
e 9 22
e 9 29
e 9 35
e 9 36
e 9 46
e 9 49
e 9 52
e 9 58
e 9 65
e 9 66
e 9 69
e 9 73
e 9 87
e 9 90
e 9 92
e 9 98
e 9 99
e 9 133
e 9 137
e 9 138
e 9 148
e 9 152
e 9 155
e 9 157
e 9 162
e 9 164
e 9 171
e 9 175
e 9 182
e 9 185
e 9 191
e 9 195
e 9 197
e 9 200
e 10 22
e 10 27
e 10 33
e 10 43
e 10 46
e 10 49
e 10 57
e 10 59
e 10 60
e 10 69
e 10 73
e 10 85
e 10 86
e 10 87
e 10 99
e 10 109
e 10 114
e 10 115
e 10 117
e 10 120
e 10 124
e 10 127
e 10 141
e 10 147
e 10 149
e 10 155
e 10 175
e 10 185
e 10 190
e 10 192
e 10 195
e 10 197
e 10 200
e 11 12
e 11 16
e 11 23
e 11 30
e 11 31
e 11 37
e 11 42
e 11 43
e 11 50
e 11 52
e 11 56
e 11 57
e 11 65
e 11 76
e 11 77
e 11 78
e 11 90
e 11 91
e 11 100
e 11 111
e 11 113
e 11 118
e 11 121
e 11 123
e 11 129
e 11 141
e 11 145
e 11 149
e 11 150
e 11 155
e 11 156
e 11 159
e 11 168
e 11 172
e 11 174
e 11 177
e 11 179
e 11 185
e 11 187
e 11 188
e 11 192
e 11 193
e 11 194
e 12 19
e 12 22
e 12 24
e 12 25
e 12 27
e 12 32
e 12 33
e 12 35
e 12 36
e 12 38
e 12 39
e 12 45
e 12 46
e 12 53
e 12 57
e 12 61
e 12 73
e 12 82
e 12 90
e 12 102
e 12 105
e 12 106
e 12 111
e 12 123
e 12 126
e 12 128
e 12 138
e 12 139
e 12 144
e 12 150
e 12 157
e 12 158
e 12 162
e 12 167
e 12 171
e 12 174
e 12 177
e 12 181
e 12 186
e 12 189
e 12 190
e 12 194
e 12 199
e 13 16
e 13 18
e 13 19
e 13 21
e 13 30
e 13 34
e 13 40
e 13 42
e 13 44
e 13 46
e 13 47
e 13 60
e 13 61
e 13 62
e 13 70
e 13 79
e 13 80
e 13 81
e 13 86
e 13 88
e 13 99
e 13 103
e 13 113
e 13 114
e 13 115
e 13 122
e 13 132
e 13 146
e 13 150
e 13 153
e 13 155
e 13 169
e 13 175
e 13 179
e 13 181
e 13 183
e 13 185
e 13 190
e 13 196
e 13 198
e 14 19
e 14 31
e 14 40
e 14 48
e 14 51
e 14 52
e 14 54
e 14 62
e 14 68
e 14 69
e 14 70
e 14 76
e 14 79
e 14 82
e 14 90
e 14 97
e 14 103
e 14 108
e 14 111
e 14 115
e 14 123
e 14 125
e 14 127
e 14 139
e 14 143
e 14 147
e 14 153
e 14 161
e 14 162
e 14 164
e 14 170
e 14 171
e 14 176
e 14 179
e 14 182
e 14 195
e 14 198
e 15 16
e 15 17
e 15 18
e 15 19
e 15 23
e 15 25
e 15 32
e 15 34
e 15 49
e 15 54
e 15 55
e 15 57
e 15 63
e 15 70
e 15 72
e 15 74
e 15 85
e 15 86
e 15 94
e 15 103
e 15 105
e 15 109
e 15 111
e 15 112
e 15 116
e 15 129
e 15 132
e 15 143
e 15 144
e 15 152
e 15 156
e 15 158
e 15 162
e 15 173
e 15 184
e 15 185
e 15 187
e 15 188
e 15 189
e 15 192
e 15 193
e 15 196
e 15 197
e 16 22
e 16 23
e 16 30
e 16 32
e 16 33
e 16 34
e 16 46
e 16 73
e 16 74
e 16 86
e 16 89
e 16 90
e 16 93
e 16 94
e 16 95
e 16 100
e 16 102
e 16 118
e 16 123
e 16 125
e 16 127
e 16 129
e 16 138
e 16 140
e 16 141
e 16 142
e 16 146
e 16 159
e 16 163
e 16 168
e 16 169
e 16 172
e 16 173
e 16 174
e 16 178
e 16 181
e 16 198
e 17 22
e 17 28
e 17 30
e 17 36
e 17 57
e 17 58
e 17 59
e 17 61
e 17 70
e 17 71
e 17 77
e 17 83
e 17 90
e 17 97
e 17 106
e 17 108
e 17 118
e 17 120
e 17 126
e 17 144
e 17 148
e 17 149
e 17 150
e 17 157
e 17 159
e 17 161
e 17 166
e 17 167
e 17 176
e 17 179
e 17 181
e 17 183
e 17 187
e 17 199
e 18 27
e 18 32
e 18 39
e 18 41
e 18 49
e 18 50
e 18 54
e 18 56
e 18 58
e 18 59
e 18 61
e 18 78
e 18 80
e 18 81
e 18 90
e 18 91
e 18 94
e 18 96
e 18 97
e 18 98
e 18 103
e 18 106
e 18 110
e 18 114
e 18 117
e 18 124
e 18 125
e 18 127
e 18 129
e 18 133
e 18 134
e 18 139
e 18 146
e 18 149
e 18 150
e 18 151
e 18 155
e 18 158
e 18 161
e 18 164
e 18 166
e 18 167
e 18 177
e 18 180
e 18 182
e 18 185
e 18 187
e 18 188
e 18 189
e 18 195
e 18 197
e 19 33
e 19 36
e 19 52
e 19 60
e 19 61
e 19 68
e 19 71
e 19 85
e 19 86
e 19 87
e 19 90
e 19 109
e 19 112
e 19 113
e 19 115
e 19 127
e 19 131
e 19 133
e 19 138
e 19 141
e 19 142
e 19 158
e 19 165
e 19 173
e 19 174
e 19 185
e 19 194
e 20 28
e 20 31
e 20 34
e 20 38
e 20 41
e 20 51
e 20 67
e 20 70
e 20 72
e 20 73
e 20 83
e 20 84
e 20 86
e 20 88
e 20 91
e 20 93
e 20 97
e 20 116
e 20 125
e 20 135
e 20 154
e 20 157
e 20 169
e 20 173
e 20 180
e 20 182
e 20 183
e 20 186
e 21 24
e 21 26
e 21 29
e 21 32
e 21 45
e 21 47
e 21 54
e 21 60
e 21 71
e 21 76
e 21 83
e 21 91
e 21 94
e 21 106
e 21 110
e 21 123
e 21 126
e 21 131
e 21 133
e 21 135
e 21 144
e 21 153
e 21 161
e 21 169
e 21 173
e 21 174
e 21 175
e 21 177
e 21 178
e 21 180
e 21 183
e 21 185
e 21 190
e 21 193
e 21 199
e 22 29
e 22 39
e 22 40
e 22 43
e 22 46
e 22 55
e 22 56
e 22 57
e 22 78
e 22 90
e 22 92
e 22 95
e 22 99
e 22 104
e 22 107
e 22 114
e 22 119
e 22 141
e 22 145
e 22 151
e 22 153
e 22 157
e 22 160
e 22 171
e 22 178
e 22 180
e 22 189
e 22 196
e 22 198
e 23 25
e 23 28
e 23 42
e 23 43
e 23 46
e 23 48
e 23 54
e 23 68
e 23 74
e 23 77
e 23 79
e 23 86
e 23 91
e 23 92
e 23 96
e 23 97
e 23 99
e 23 100
e 23 101
e 23 104
e 23 107
e 23 110
e 23 119
e 23 123
e 23 128
e 23 129
e 23 133
e 23 134
e 23 138
e 23 143
e 23 145
e 23 146
e 23 147
e 23 150
e 23 153
e 23 154
e 23 159
e 23 170
e 23 175
e 23 182
e 23 188
e 23 192
e 23 194
e 23 199
e 24 28
e 24 30
e 24 37
e 24 40
e 24 41
e 24 45
e 24 50
e 24 53
e 24 56
e 24 63
e 24 65
e 24 72
e 24 77
e 24 85
e 24 89
e 24 90
e 24 94
e 24 95
e 24 101
e 24 106
e 24 116
e 24 121
e 24 122
e 24 123
e 24 127
e 24 130
e 24 131
e 24 132
e 24 136
e 24 144
e 24 145
e 24 154
e 24 158
e 24 159
e 24 164
e 24 165
e 24 168
e 24 179
e 24 180
e 24 187
e 24 196
e 24 198
e 25 28
e 25 37
e 25 46
e 25 58
e 25 60
e 25 65
e 25 80
e 25 81
e 25 83
e 25 84
e 25 87
e 25 93
e 25 94
e 25 110
e 25 111
e 25 115
e 25 126
e 25 133
e 25 135
e 25 146
e 25 151
e 25 152
e 25 154
e 25 156
e 25 158
e 25 163
e 25 167
e 25 171
e 25 172
e 25 176
e 25 178
e 25 179
e 25 183
e 25 186
e 25 188
e 25 190
e 25 193
e 25 198
e 25 199
e 26 27
e 26 31
e 26 38
e 26 47
e 26 52
e 26 56
e 26 64
e 26 71
e 26 77
e 26 78
e 26 86
e 26 89
e 26 92
e 26 97
e 26 98
e 26 100
e 26 104
e 26 108
e 26 112
e 26 115
e 26 120
e 26 121
e 26 154
e 26 155
e 26 158
e 26 160
e 26 166
e 26 188
e 26 195
e 26 198
e 26 200
e 27 30
e 27 38
e 27 41
e 27 44
e 27 46
e 27 54
e 27 57
e 27 59
e 27 62
e 27 69
e 27 74
e 27 84
e 27 86
e 27 90
e 27 92
e 27 93
e 27 97
e 27 101
e 27 106
e 27 107
e 27 113
e 27 124
e 27 129
e 27 135
e 27 144
e 27 146
e 27 159
e 27 164
e 27 166
e 27 167
e 27 169
e 27 177
e 27 180
e 27 186
e 27 190
e 27 193
e 27 200
e 28 33
e 28 34
e 28 35
e 28 42
e 28 43
e 28 45
e 28 46
e 28 48
e 28 56
e 28 58
e 28 60
e 28 61
e 28 62
e 28 63
e 28 65
e 28 66
e 28 67
e 28 75
e 28 80
e 28 82
e 28 87
e 28 89
e 28 92
e 28 95
e 28 98
e 28 103
e 28 115
e 28 117
e 28 118
e 28 119
e 28 126
e 28 128
e 28 133
e 28 140
e 28 145
e 28 146
e 28 148
e 28 155
e 28 161
e 28 175
e 28 177
e 28 179
e 28 181
e 28 186
e 28 189
e 28 190
e 29 31
e 29 33
e 29 35
e 29 37
e 29 42
e 29 43
e 29 44
e 29 58
e 29 61
e 29 67
e 29 68
e 29 70
e 29 73
e 29 79
e 29 85
e 29 89
e 29 91
e 29 95
e 29 105
e 29 109
e 29 110
e 29 113
e 29 114
e 29 121
e 29 123
e 29 128
e 29 135
e 29 143
e 29 154
e 29 157
e 29 163
e 29 167
e 29 172
e 29 177
e 29 179
e 29 180
e 29 188
e 29 193
e 29 198
e 29 199
e 30 34
e 30 37
e 30 42
e 30 51
e 30 55
e 30 60
e 30 68
e 30 70
e 30 72
e 30 88
e 30 99
e 30 103
e 30 106
e 30 108
e 30 112
e 30 119
e 30 130
e 30 132
e 30 140
e 30 147
e 30 148
e 30 154
e 30 157
e 30 162
e 30 166
e 30 174
e 30 177
e 30 179
e 30 192
e 30 195
e 31 35
e 31 36
e 31 40
e 31 43
e 31 46
e 31 52
e 31 55
e 31 58
e 31 59
e 31 75
e 31 76
e 31 80
e 31 82
e 31 86
e 31 92
e 31 94
e 31 110
e 31 111
e 31 117
e 31 120
e 31 123
e 31 128
e 31 133
e 31 135
e 31 137
e 31 139
e 31 148
e 31 152
e 31 154
e 31 158
e 31 162
e 31 164
e 31 179
e 31 189
e 31 192
e 32 33
e 32 67
e 32 75
e 32 88
e 32 100
e 32 106
e 32 110
e 32 117
e 32 122
e 32 123
e 32 144
e 32 162
e 32 167
e 32 169
e 32 170
e 32 180
e 32 183
e 32 192
e 32 193
e 32 195
e 32 197
e 32 199
e 33 46
e 33 52
e 33 53
e 33 62
e 33 66
e 33 72
e 33 74
e 33 87
e 33 104
e 33 112
e 33 121
e 33 126
e 33 131
e 33 149
e 33 164
e 33 173
e 33 175
e 33 181
e 33 185
e 33 188
e 34 36
e 34 37
e 34 53
e 34 58
e 34 61
e 34 65
e 34 69
e 34 78
e 34 86
e 34 97
e 34 98
e 34 100
e 34 101
e 34 102
e 34 103
e 34 108
e 34 110
e 34 112
e 34 113
e 34 114
e 34 119
e 34 126
e 34 135
e 34 138
e 34 140
e 34 149
e 34 150
e 34 152
e 34 156
e 34 162
e 34 173
e 34 182
e 34 188
e 34 189
e 34 197
e 35 39
e 35 51
e 35 53
e 35 55
e 35 57
e 35 59
e 35 61
e 35 62
e 35 66
e 35 67
e 35 77
e 35 82
e 35 97
e 35 102
e 35 104
e 35 106
e 35 123
e 35 129
e 35 135
e 35 137
e 35 154
e 35 157
e 35 160
e 35 169
e 35 173
e 35 175
e 35 176
e 35 177
e 35 179
e 35 183
e 35 187
e 35 192
e 35 195
e 36 38
e 36 44
e 36 46
e 36 49
e 36 50
e 36 59
e 36 68
e 36 69
e 36 74
e 36 75
e 36 87
e 36 91
e 36 99
e 36 103
e 36 104
e 36 115
e 36 119
e 36 125
e 36 126
e 36 128
e 36 129
e 36 130
e 36 133
e 36 137
e 36 143
e 36 146
e 36 147
e 36 151
e 36 155
e 36 159
e 36 161
e 36 163
e 36 170
e 36 171
e 36 175
e 36 177
e 36 178
e 36 185
e 36 190
e 37 44
e 37 48
e 37 49
e 37 58
e 37 70
e 37 77
e 37 80
e 37 83
e 37 87
e 37 88
e 37 90
e 37 92
e 37 93
e 37 96
e 37 100
e 37 101
e 37 103
e 37 105
e 37 108
e 37 110
e 37 122
e 37 127
e 37 135
e 37 136
e 37 140
e 37 143
e 37 144
e 37 145
e 37 148
e 37 150
e 37 152
e 37 155
e 37 160
e 37 172
e 37 188
e 37 189
e 37 190
e 38 40
e 38 49
e 38 51
e 38 55
e 38 57
e 38 59
e 38 61
e 38 66
e 38 75
e 38 77
e 38 78
e 38 85
e 38 87
e 38 91
e 38 104
e 38 109
e 38 114
e 38 124
e 38 136
e 38 137
e 38 145
e 38 160
e 38 162
e 38 174
e 38 175
e 38 177
e 38 182
e 38 186
e 38 189
e 38 190
e 38 192
e 38 200
e 39 45
e 39 51
e 39 58
e 39 59
e 39 86
e 39 91
e 39 92
e 39 105
e 39 107
e 39 108
e 39 110
e 39 114
e 39 118
e 39 126
e 39 131
e 39 133
e 39 134
e 39 138
e 39 143
e 39 144
e 39 147
e 39 148
e 39 153
e 39 158
e 39 164
e 39 165
e 39 168
e 39 170
e 39 178
e 39 183
e 39 191
e 40 45
e 40 47
e 40 55
e 40 63
e 40 65
e 40 68
e 40 73
e 40 74
e 40 76
e 40 77
e 40 82
e 40 88
e 40 90
e 40 97
e 40 107
e 40 109
e 40 123
e 40 125
e 40 126
e 40 128
e 40 129
e 40 130
e 40 141
e 40 147
e 40 154
e 40 159
e 40 162
e 40 166
e 40 167
e 40 171
e 40 181
e 40 182
e 40 189
e 40 192
e 40 196
e 40 198
e 40 199
e 41 45
e 41 55
e 41 61
e 41 64
e 41 67
e 41 75
e 41 78
e 41 84
e 41 101
e 41 106
e 41 121
e 41 122
e 41 127
e 41 129
e 41 132
e 41 134
e 41 145
e 41 149
e 41 169
e 41 170
e 41 175
e 41 176
e 41 182
e 41 185
e 41 187
e 41 190
e 41 194
e 41 197
e 42 43
e 42 52
e 42 59
e 42 68
e 42 74
e 42 83
e 42 97
e 42 99
e 42 100
e 42 103
e 42 105
e 42 111
e 42 116
e 42 124
e 42 135
e 42 138
e 42 143
e 42 144
e 42 151
e 42 153
e 42 158
e 42 171
e 42 177
e 42 192
e 42 197
e 42 198
e 43 51
e 43 62
e 43 64
e 43 65
e 43 66
e 43 68
e 43 77
e 43 80
e 43 87
e 43 88
e 43 92
e 43 93
e 43 96
e 43 97
e 43 99
e 43 108
e 43 113
e 43 122
e 43 127
e 43 147
e 43 164
e 43 171
e 43 179
e 43 182
e 43 184
e 43 189
e 43 190
e 43 195
e 43 198
e 43 199
e 43 200
e 44 56
e 44 64
e 44 72
e 44 73
e 44 77
e 44 81
e 44 85
e 44 88
e 44 90
e 44 99
e 44 101
e 44 104
e 44 108
e 44 110
e 44 113
e 44 117
e 44 118
e 44 122
e 44 126
e 44 134
e 44 135
e 44 137
e 44 138
e 44 139
e 44 143
e 44 157
e 44 163
e 44 172
e 44 174
e 44 176
e 44 178
e 44 180
e 44 183
e 44 186
e 44 189
e 44 196
e 45 46
e 45 51
e 45 59
e 45 60
e 45 68
e 45 70
e 45 71
e 45 73
e 45 75
e 45 80
e 45 85
e 45 86
e 45 92
e 45 102
e 45 112
e 45 115
e 45 119
e 45 126
e 45 130
e 45 134
e 45 138
e 45 139
e 45 143
e 45 145
e 45 147
e 45 149
e 45 153
e 45 156
e 45 159
e 45 160
e 45 163
e 45 168
e 45 169
e 45 177
e 45 178
e 45 199
e 46 49
e 46 52
e 46 54
e 46 55
e 46 56
e 46 70
e 46 71
e 46 74
e 46 76
e 46 85
e 46 87
e 46 88
e 46 90
e 46 91
e 46 92
e 46 120
e 46 125
e 46 133
e 46 134
e 46 136
e 46 156
e 46 165
e 46 168
e 46 169
e 46 173
e 46 176
e 46 177
e 46 180
e 47 50
e 47 54
e 47 58
e 47 59
e 47 63
e 47 69
e 47 75
e 47 82
e 47 93
e 47 94
e 47 112
e 47 115
e 47 135
e 47 142
e 47 150
e 47 154
e 47 155
e 47 159
e 47 171
e 47 173
e 47 175
e 47 176
e 47 182
e 47 185
e 47 192
e 48 50
e 48 58
e 48 78
e 48 85
e 48 89
e 48 93
e 48 95
e 48 101
e 48 109
e 48 113
e 48 125
e 48 130
e 48 131
e 48 134
e 48 136
e 48 148
e 48 151
e 48 158
e 48 166
e 48 167
e 48 173
e 48 175
e 48 176
e 48 177
e 48 182
e 48 191
e 49 80
e 49 84
e 49 86
e 49 93
e 49 95
e 49 105
e 49 106
e 49 111
e 49 118
e 49 126
e 49 128
e 49 132
e 49 135
e 49 142
e 49 147
e 49 170
e 49 171
e 49 182
e 49 183
e 49 184
e 49 192
e 49 195
e 50 52
e 50 55
e 50 64
e 50 66
e 50 69
e 50 72
e 50 91
e 50 94
e 50 106
e 50 107
e 50 116
e 50 123
e 50 131
e 50 137
e 50 146
e 50 147
e 50 157
e 50 158
e 50 171
e 50 174
e 50 179
e 50 186
e 50 187
e 50 192
e 50 196
e 50 198
e 51 52
e 51 55
e 51 56
e 51 58
e 51 72
e 51 74
e 51 84
e 51 85
e 51 88
e 51 89
e 51 109
e 51 128
e 51 131
e 51 134
e 51 140
e 51 144
e 51 149
e 51 164
e 51 167
e 51 168
e 51 169
e 51 185
e 51 191
e 51 193
e 51 194
e 51 195
e 51 196
e 52 59
e 52 65
e 52 68
e 52 72
e 52 73
e 52 78
e 52 86
e 52 88
e 52 92
e 52 104
e 52 107
e 52 117
e 52 121
e 52 122
e 52 128
e 52 132
e 52 137
e 52 147
e 52 149
e 52 155
e 52 156
e 52 157
e 52 160
e 52 167
e 52 177
e 52 180
e 52 184
e 52 196
e 53 60
e 53 61
e 53 64
e 53 66
e 53 69
e 53 71
e 53 77
e 53 78
e 53 84
e 53 88
e 53 93
e 53 102
e 53 106
e 53 107
e 53 108
e 53 117
e 53 118
e 53 129
e 53 136
e 53 141
e 53 143
e 53 145
e 53 148
e 53 151
e 53 153
e 53 162
e 53 164
e 53 167
e 53 177
e 53 182
e 53 186
e 53 194
e 53 199
e 53 200
e 54 55
e 54 60
e 54 68
e 54 77
e 54 78
e 54 83
e 54 94
e 54 96
e 54 100
e 54 102
e 54 109
e 54 123
e 54 128
e 54 138
e 54 141
e 54 146
e 54 153
e 54 154
e 54 161
e 54 165
e 54 171
e 54 194
e 54 196
e 54 199
e 55 59
e 55 61
e 55 63
e 55 67
e 55 69
e 55 73
e 55 80
e 55 83
e 55 88
e 55 90
e 55 91
e 55 100
e 55 103
e 55 106
e 55 107
e 55 108
e 55 111
e 55 113
e 55 122
e 55 128
e 55 132
e 55 136
e 55 138
e 55 142
e 55 159
e 55 166
e 55 168
e 55 170
e 55 177
e 55 178
e 55 195
e 55 198
e 56 57
e 56 62
e 56 74
e 56 77
e 56 87
e 56 93
e 56 94
e 56 100
e 56 102
e 56 105
e 56 120
e 56 124
e 56 129
e 56 131
e 56 141
e 56 143
e 56 145
e 56 164
e 56 170
e 56 176
e 56 177
e 56 181
e 56 183
e 56 186
e 56 188
e 56 200
e 57 62
e 57 68
e 57 69
e 57 77
e 57 83
e 57 89
e 57 90
e 57 96
e 57 98
e 57 105
e 57 111
e 57 117
e 57 118
e 57 121
e 57 123
e 57 125
e 57 129
e 57 133
e 57 147
e 57 157
e 57 158
e 57 162
e 57 175
e 57 183
e 57 185
e 57 196
e 58 67
e 58 82
e 58 86
e 58 99
e 58 106
e 58 111
e 58 114
e 58 129
e 58 136
e 58 140
e 58 145
e 58 148
e 58 149
e 58 152
e 58 153
e 58 159
e 58 162
e 58 169
e 58 170
e 58 173
e 58 184
e 58 185
e 58 189
e 58 191
e 58 196
e 59 70
e 59 72
e 59 73
e 59 82
e 59 87
e 59 93
e 59 102
e 59 104
e 59 106
e 59 117
e 59 120
e 59 124
e 59 131
e 59 132
e 59 137
e 59 139
e 59 150
e 59 155
e 59 156
e 59 157
e 59 160
e 59 162
e 59 169
e 59 174
e 59 177
e 59 178
e 59 182
e 59 183
e 59 184
e 59 187
e 59 188
e 59 195
e 60 62
e 60 72
e 60 80
e 60 82
e 60 87
e 60 88
e 60 97
e 60 100
e 60 103
e 60 105
e 60 107
e 60 119
e 60 122
e 60 134
e 60 148
e 60 153
e 60 154
e 60 157
e 60 162
e 60 174
e 60 177
e 60 179
e 60 183
e 60 196
e 61 65
e 61 71
e 61 79
e 61 81
e 61 83
e 61 89
e 61 90
e 61 113
e 61 116
e 61 124
e 61 128
e 61 132
e 61 133
e 61 138
e 61 139
e 61 145
e 61 147
e 61 152
e 61 154
e 61 162
e 61 163
e 61 166
e 61 176
e 61 196
e 61 197
e 61 198
e 62 75
e 62 88
e 62 96
e 62 108
e 62 111
e 62 123
e 62 136
e 62 138
e 62 147
e 62 155
e 62 159
e 62 172
e 62 174
e 62 179
e 62 180
e 62 189
e 62 191
e 62 193
e 62 194
e 62 200
e 63 64
e 63 73
e 63 75
e 63 76
e 63 77
e 63 78
e 63 87
e 63 88
e 63 90
e 63 92
e 63 95
e 63 103
e 63 110
e 63 112
e 63 114
e 63 115
e 63 120
e 63 135
e 63 137
e 63 143
e 63 164
e 63 165
e 63 167
e 63 169
e 63 183
e 64 70
e 64 75
e 64 79
e 64 91
e 64 92
e 64 94
e 64 101
e 64 104
e 64 105
e 64 108
e 64 129
e 64 132
e 64 133
e 64 134
e 64 143
e 64 148
e 64 150
e 64 157
e 64 158
e 64 161
e 64 167
e 64 175
e 64 182
e 64 183
e 64 193
e 65 70
e 65 71
e 65 73
e 65 75
e 65 84
e 65 86
e 65 98
e 65 101
e 65 114
e 65 118
e 65 124
e 65 138
e 65 140
e 65 151
e 65 159
e 65 165
e 65 166
e 65 171
e 65 178
e 65 182
e 65 183
e 65 184
e 65 185
e 65 188
e 65 192
e 65 200
e 66 78
e 66 80
e 66 86
e 66 102
e 66 105
e 66 107
e 66 109
e 66 118
e 66 121
e 66 125
e 66 134
e 66 141
e 66 145
e 66 149
e 66 156
e 66 159
e 66 162
e 66 169
e 66 178
e 66 180
e 66 193
e 66 197
e 67 72
e 67 78
e 67 81
e 67 87
e 67 88
e 67 89
e 67 90
e 67 95
e 67 97
e 67 105
e 67 110
e 67 120
e 67 122
e 67 126
e 67 130
e 67 132
e 67 137
e 67 140
e 67 144
e 67 146
e 67 147
e 67 150
e 67 158
e 67 164
e 67 176
e 67 177
e 67 178
e 67 179
e 67 181
e 67 186
e 67 193
e 67 194
e 67 198
e 68 70
e 68 72
e 68 75
e 68 76
e 68 82
e 68 83
e 68 98
e 68 111
e 68 115
e 68 121
e 68 129
e 68 132
e 68 142
e 68 156
e 68 157
e 68 160
e 68 163
e 68 167
e 68 174
e 68 184
e 68 185
e 68 186
e 68 198
e 69 74
e 69 75
e 69 84
e 69 87
e 69 95
e 69 99
e 69 100
e 69 101
e 69 103
e 69 105
e 69 111
e 69 118
e 69 121
e 69 127
e 69 130
e 69 131
e 69 134
e 69 153
e 69 154
e 69 172
e 69 173
e 69 177
e 69 195
e 69 197
e 70 72
e 70 77
e 70 82
e 70 87
e 70 95
e 70 100
e 70 106
e 70 109
e 70 124
e 70 125
e 70 127
e 70 133
e 70 134
e 70 137
e 70 141
e 70 149
e 70 150
e 70 152
e 70 153
e 70 156
e 70 168
e 70 169
e 70 171
e 70 172
e 70 176
e 70 178
e 70 179
e 70 182
e 70 188
e 70 189
e 70 192
e 71 74
e 71 85
e 71 87
e 71 97
e 71 108
e 71 113
e 71 121
e 71 125
e 71 127
e 71 130
e 71 139
e 71 150
e 71 152
e 71 159
e 71 177
e 71 186
e 71 190
e 71 200
e 72 73
e 72 82
e 72 89
e 72 98
e 72 102
e 72 106
e 72 114
e 72 128
e 72 132
e 72 139
e 72 141
e 72 142
e 72 155
e 72 159
e 72 167
e 72 179
e 72 180
e 72 181
e 72 185
e 72 187
e 72 192
e 73 75
e 73 85
e 73 89
e 73 91
e 73 92
e 73 98
e 73 103
e 73 109
e 73 119
e 73 143
e 73 145
e 73 146
e 73 155
e 73 158
e 73 159
e 73 162
e 73 164
e 73 167
e 73 169
e 73 172
e 73 175
e 73 177
e 73 181
e 73 184
e 73 189
e 73 194
e 73 200
e 74 75
e 74 80
e 74 84
e 74 88
e 74 93
e 74 97
e 74 98
e 74 105
e 74 110
e 74 111
e 74 112
e 74 115
e 74 117
e 74 124
e 74 131
e 74 135
e 74 138
e 74 139
e 74 142
e 74 143
e 74 144
e 74 147
e 74 167
e 74 172
e 74 173
e 74 179
e 74 198
e 75 85
e 75 86
e 75 94
e 75 106
e 75 112
e 75 113
e 75 133
e 75 136
e 75 140
e 75 142
e 75 153
e 75 155
e 75 160
e 75 162
e 75 163
e 75 171
e 75 173
e 75 175
e 75 176
e 75 190
e 75 196
e 75 198
e 76 78
e 76 79
e 76 80
e 76 81
e 76 83
e 76 88
e 76 92
e 76 93
e 76 99
e 76 111
e 76 113
e 76 114
e 76 116
e 76 141
e 76 142
e 76 147
e 76 170
e 76 189
e 76 191
e 76 198
e 77 78
e 77 83
e 77 86
e 77 97
e 77 103
e 77 104
e 77 105
e 77 112
e 77 113
e 77 114
e 77 115
e 77 121
e 77 127
e 77 128
e 77 143
e 77 150
e 77 157
e 77 163
e 77 166
e 77 175
e 77 185
e 77 187
e 77 189
e 77 190
e 77 200
e 78 79
e 78 81
e 78 85
e 78 89
e 78 98
e 78 100
e 78 101
e 78 103
e 78 106
e 78 112
e 78 114
e 78 116
e 78 131
e 78 145
e 78 146
e 78 154
e 78 155
e 78 168
e 78 176
e 78 180
e 79 80
e 79 82
e 79 86
e 79 91
e 79 93
e 79 95
e 79 97
e 79 105
e 79 119
e 79 120
e 79 124
e 79 130
e 79 133
e 79 140
e 79 149
e 79 152
e 79 155
e 79 157
e 79 164
e 79 166
e 79 172
e 79 174
e 79 175
e 79 190
e 79 197
e 79 198
e 79 199
e 80 86
e 80 87
e 80 105
e 80 113
e 80 114
e 80 117
e 80 119
e 80 120
e 80 121
e 80 123
e 80 125
e 80 126
e 80 133
e 80 143
e 80 151
e 80 153
e 80 155
e 80 165
e 80 170
e 80 176
e 80 185
e 80 189
e 80 196
e 80 197
e 81 83
e 81 91
e 81 92
e 81 96
e 81 98
e 81 99
e 81 110
e 81 111
e 81 115
e 81 122
e 81 136
e 81 142
e 81 143
e 81 144
e 81 154
e 81 157
e 81 159
e 81 164
e 81 165
e 81 167
e 81 168
e 81 171
e 81 172
e 81 181
e 81 182
e 81 183
e 81 188
e 81 190
e 81 193
e 81 196
e 82 86
e 82 89
e 82 92
e 82 95
e 82 99
e 82 101
e 82 115
e 82 116
e 82 119
e 82 123
e 82 126
e 82 127
e 82 128
e 82 130
e 82 132
e 82 140
e 82 141
e 82 143
e 82 150
e 82 154
e 82 157
e 82 158
e 82 169
e 82 170
e 82 173
e 82 174
e 82 182
e 82 195
e 82 197
e 82 199
e 82 200
e 83 91
e 83 92
e 83 93
e 83 96
e 83 98
e 83 101
e 83 119
e 83 125
e 83 127
e 83 128
e 83 129
e 83 133
e 83 139
e 83 140
e 83 141
e 83 143
e 83 147
e 83 148
e 83 149
e 83 150
e 83 152
e 83 153
e 83 155
e 83 156
e 83 160
e 83 170
e 83 171
e 83 185
e 83 190
e 84 87
e 84 88
e 84 92
e 84 96
e 84 103
e 84 107
e 84 113
e 84 115
e 84 124
e 84 131
e 84 141
e 84 149
e 84 153
e 84 172
e 84 176
e 84 182
e 84 185
e 84 195
e 85 89
e 85 93
e 85 103
e 85 108
e 85 111
e 85 124
e 85 142
e 85 145
e 85 148
e 85 151
e 85 154
e 85 156
e 85 163
e 85 164
e 85 165
e 85 167
e 85 176
e 85 187
e 85 194
e 85 196
e 85 199
e 86 90
e 86 96
e 86 102
e 86 104
e 86 105
e 86 115
e 86 117
e 86 121
e 86 123
e 86 125
e 86 129
e 86 135
e 86 140
e 86 152
e 86 154
e 86 160
e 86 162
e 86 163
e 86 168
e 86 174
e 86 176
e 86 178
e 86 184
e 86 186
e 86 192
e 87 91
e 87 98
e 87 99
e 87 109
e 87 110
e 87 118
e 87 122
e 87 123
e 87 126
e 87 140
e 87 149
e 87 150
e 87 160
e 87 161
e 87 167
e 87 182
e 87 188
e 87 195
e 87 198
e 87 199
e 87 200
e 88 93
e 88 98
e 88 99
e 88 109
e 88 115
e 88 117
e 88 134
e 88 135
e 88 151
e 88 153
e 88 163
e 88 169
e 88 170
e 88 174
e 88 182
e 88 183
e 88 185
e 88 196
e 89 94
e 89 103
e 89 104
e 89 116
e 89 120
e 89 136
e 89 139
e 89 141
e 89 149
e 89 154
e 89 156
e 89 162
e 89 164
e 89 165
e 89 168
e 89 171
e 89 174
e 89 179
e 89 183
e 89 187
e 89 188
e 89 190
e 89 191
e 89 199
e 90 100
e 90 103
e 90 123
e 90 124
e 90 126
e 90 130
e 90 134
e 90 150
e 90 157
e 90 167
e 90 176
e 90 194
e 90 199
e 91 100
e 91 102
e 91 113
e 91 114
e 91 116
e 91 122
e 91 126
e 91 129
e 91 131
e 91 133
e 91 138
e 91 144
e 91 148
e 91 151
e 91 153
e 91 157
e 91 162
e 91 173
e 91 178
e 91 179
e 91 182
e 91 184
e 91 190
e 91 196
e 91 199
e 92 95
e 92 99
e 92 106
e 92 128
e 92 132
e 92 141
e 92 143
e 92 147
e 92 148
e 92 156
e 92 167
e 92 170
e 92 188
e 92 196
e 92 197
e 92 200
e 93 98
e 93 100
e 93 111
e 93 123
e 93 129
e 93 137
e 93 141
e 93 150
e 93 151
e 93 153
e 93 154
e 93 167
e 93 170
e 93 179
e 93 181
e 93 189
e 93 195
e 94 95
e 94 111
e 94 113
e 94 116
e 94 119
e 94 120
e 94 126
e 94 147
e 94 148
e 94 150
e 94 153
e 94 159
e 94 174
e 94 181
e 94 191
e 94 194
e 94 199
e 95 101
e 95 105
e 95 120
e 95 121
e 95 122
e 95 128
e 95 132
e 95 138
e 95 143
e 95 145
e 95 155
e 95 160
e 95 162
e 95 163
e 95 184
e 95 187
e 96 102
e 96 111
e 96 115
e 96 123
e 96 124
e 96 129
e 96 134
e 96 144
e 96 147
e 96 152
e 96 165
e 96 168
e 96 174
e 96 186
e 96 191
e 96 192
e 96 194
e 96 197
e 96 200
e 97 99
e 97 100
e 97 102
e 97 106
e 97 107
e 97 121
e 97 123
e 97 127
e 97 129
e 97 138
e 97 141
e 97 143
e 97 147
e 97 148
e 97 149
e 97 153
e 97 158
e 97 168
e 97 172
e 97 176
e 97 182
e 97 189
e 97 190
e 97 194
e 97 199
e 98 103
e 98 122
e 98 130
e 98 142
e 98 143
e 98 144
e 98 147
e 98 154
e 98 155
e 98 160
e 98 162
e 98 169
e 98 172
e 98 174
e 98 186
e 98 189
e 98 195
e 98 196
e 98 197
e 98 200
e 99 108
e 99 110
e 99 112
e 99 122
e 99 130
e 99 132
e 99 136
e 99 139
e 99 145
e 99 146
e 99 147
e 99 151
e 99 156
e 99 158
e 99 162
e 99 165
e 99 173
e 99 175
e 99 177
e 99 185
e 99 189
e 99 196
e 99 197
e 100 108
e 100 112
e 100 114
e 100 124
e 100 129
e 100 133
e 100 135
e 100 136
e 100 142
e 100 144
e 100 149
e 100 152
e 100 170
e 100 179
e 100 180
e 100 191
e 100 192
e 100 199
e 100 200
e 101 103
e 101 110
e 101 114
e 101 115
e 101 120
e 101 127
e 101 128
e 101 130
e 101 131
e 101 137
e 101 138
e 101 143
e 101 148
e 101 149
e 101 154
e 101 163
e 101 170
e 101 174
e 101 199
e 102 103
e 102 104
e 102 106
e 102 114
e 102 118
e 102 120
e 102 121
e 102 122
e 102 130
e 102 134
e 102 140
e 102 141
e 102 142
e 102 151
e 102 158
e 102 159
e 102 160
e 102 168
e 102 173
e 102 175
e 102 178
e 102 180
e 102 187
e 102 191
e 102 195
e 102 198
e 102 199
e 102 200
e 103 106
e 103 107
e 103 116
e 103 123
e 103 129
e 103 130
e 103 140
e 103 141
e 103 145
e 103 150
e 103 155
e 103 159
e 103 164
e 103 176
e 103 180
e 103 186
e 103 188
e 104 110
e 104 111
e 104 112
e 104 113
e 104 117
e 104 118
e 104 121
e 104 123
e 104 130
e 104 131
e 104 137
e 104 144
e 104 145
e 104 147
e 104 149
e 104 157
e 104 159
e 104 163
e 104 170
e 104 172
e 104 174
e 104 175
e 104 176
e 104 181
e 104 184
e 104 185
e 104 188
e 104 189
e 104 190
e 104 191
e 104 196
e 104 199
e 105 108
e 105 109
e 105 112
e 105 118
e 105 121
e 105 131
e 105 134
e 105 138
e 105 140
e 105 141
e 105 145
e 105 146
e 105 148
e 105 159
e 105 166
e 105 168
e 105 171
e 105 173
e 105 184
e 105 187
e 106 107
e 106 111
e 106 114
e 106 139
e 106 140
e 106 156
e 106 160
e 106 167
e 106 176
e 106 178
e 106 191
e 106 193
e 106 195
e 106 200
e 107 110
e 107 111
e 107 114
e 107 131
e 107 134
e 107 135
e 107 136
e 107 156
e 107 159
e 107 161
e 107 162
e 107 166
e 107 183
e 108 109
e 108 110
e 108 112
e 108 114
e 108 119
e 108 123
e 108 126
e 108 127
e 108 128
e 108 144
e 108 149
e 108 150
e 108 152
e 108 154
e 108 156
e 108 161
e 108 168
e 108 169
e 108 178
e 108 200
e 109 114
e 109 126
e 109 129
e 109 130
e 109 133
e 109 143
e 109 157
e 109 159
e 109 165
e 109 168
e 109 170
e 109 189
e 109 190
e 109 192
e 109 194
e 109 200
e 110 114
e 110 117
e 110 118
e 110 120
e 110 126
e 110 130
e 110 133
e 110 134
e 110 136
e 110 156
e 110 168
e 110 171
e 110 173
e 110 180
e 110 185
e 110 191
e 110 194
e 111 113
e 111 114
e 111 116
e 111 130
e 111 133
e 111 142
e 111 145
e 111 147
e 111 148
e 111 154
e 111 158
e 111 179
e 111 181
e 111 184
e 111 185
e 111 188
e 111 199
e 111 200
e 112 117
e 112 128
e 112 130
e 112 132
e 112 133
e 112 145
e 112 146
e 112 152
e 112 157
e 112 163
e 112 164
e 112 168
e 112 170
e 112 172
e 112 176
e 112 180
e 112 181
e 112 190
e 112 191
e 112 197
e 113 114
e 113 115
e 113 116
e 113 118
e 113 121
e 113 125
e 113 127
e 113 133
e 113 144
e 113 146
e 113 148
e 113 149
e 113 153
e 113 155
e 113 158
e 113 164
e 113 170
e 113 174
e 113 177
e 113 178
e 113 179
e 113 182
e 113 193
e 113 194
e 113 196
e 113 198
e 114 121
e 114 139
e 114 148
e 114 150
e 114 154
e 114 159
e 114 164
e 114 177
e 114 185
e 114 193
e 114 194
e 115 123
e 115 126
e 115 128
e 115 130
e 115 136
e 115 137
e 115 142
e 115 154
e 115 161
e 115 162
e 115 167
e 115 172
e 115 173
e 115 179
e 115 180
e 115 181
e 115 182
e 115 183
e 115 184
e 115 195
e 115 198
e 116 124
e 116 132
e 116 134
e 116 142
e 116 144
e 116 158
e 116 162
e 116 165
e 116 166
e 116 168
e 116 171
e 116 175
e 116 177
e 116 185
e 116 197
e 116 198
e 117 124
e 117 125
e 117 133
e 117 135
e 117 138
e 117 140
e 117 141
e 117 142
e 117 150
e 117 152
e 117 160
e 117 165
e 117 167
e 117 175
e 117 183
e 117 187
e 118 153
e 118 159
e 118 160
e 118 161
e 118 163
e 118 167
e 118 169
e 118 171
e 118 174
e 118 175
e 118 179
e 118 187
e 118 190
e 118 193
e 118 197
e 119 123
e 119 128
e 119 132
e 119 140
e 119 141
e 119 143
e 119 162
e 119 176
e 119 177
e 119 178
e 119 182
e 119 183
e 119 184
e 120 128
e 120 132
e 120 135
e 120 137
e 120 153
e 120 157
e 120 158
e 120 164
e 120 168
e 120 171
e 120 173
e 120 177
e 120 181
e 120 182
e 120 187
e 120 194
e 120 195
e 120 196
e 121 124
e 121 129
e 121 137
e 121 143
e 121 145
e 121 150
e 121 153
e 121 155
e 121 158
e 121 162
e 121 168
e 121 180
e 121 183
e 121 187
e 121 190
e 121 199
e 122 130
e 122 133
e 122 136
e 122 140
e 122 150
e 122 152
e 122 161
e 122 165
e 122 168
e 122 176
e 122 185
e 122 191
e 122 194
e 123 129
e 123 135
e 123 140
e 123 147
e 123 149
e 123 156
e 123 157
e 123 158
e 123 162
e 123 163
e 123 168
e 123 169
e 123 181
e 123 183
e 123 184
e 123 192
e 124 125
e 124 130
e 124 132
e 124 134
e 124 137
e 124 141
e 124 147
e 124 156
e 124 170
e 124 176
e 124 184
e 124 186
e 124 193
e 124 194
e 124 200
e 125 132
e 125 133
e 125 141
e 125 142
e 125 143
e 125 145
e 125 146
e 125 148
e 125 153
e 125 154
e 125 155
e 125 158
e 125 159
e 125 168
e 125 171
e 125 184
e 125 189
e 125 190
e 125 195
e 125 196
e 125 197
e 125 200
e 126 127
e 126 135
e 126 138
e 126 158
e 126 159
e 126 160
e 126 163
e 126 164
e 126 166
e 126 167
e 126 168
e 126 170
e 126 182
e 126 186
e 126 187
e 126 194
e 127 128
e 127 129
e 127 130
e 127 131
e 127 137
e 127 138
e 127 140
e 127 146
e 127 152
e 127 154
e 127 158
e 127 168
e 127 170
e 127 174
e 127 183
e 127 186
e 127 190
e 127 194
e 128 132
e 128 133
e 128 135
e 128 137
e 128 146
e 128 157
e 128 158
e 128 160
e 128 166
e 128 169
e 128 170
e 128 173
e 128 175
e 128 181
e 128 184
e 128 188
e 128 192
e 128 200
e 129 134
e 129 140
e 129 144
e 129 147
e 129 158
e 129 161
e 129 166
e 129 181
e 129 183
e 129 190
e 130 140
e 130 146
e 130 149
e 130 151
e 130 154
e 130 157
e 130 160
e 130 164
e 130 171
e 130 175
e 130 179
e 130 184
e 130 188
e 130 195
e 131 132
e 131 143
e 131 145
e 131 152
e 131 156
e 131 158
e 131 166
e 131 167
e 131 169
e 131 173
e 131 175
e 131 179
e 131 181
e 131 182
e 131 186
e 131 190
e 132 133
e 132 134
e 132 141
e 132 148
e 132 149
e 132 152
e 132 153
e 132 161
e 132 162
e 132 174
e 132 190
e 132 194
e 133 136
e 133 139
e 133 153
e 133 155
e 133 157
e 133 158
e 133 161
e 133 162
e 133 167
e 133 171
e 133 188
e 133 190
e 133 192
e 133 195
e 133 200
e 134 135
e 134 139
e 134 140
e 134 146
e 134 148
e 134 150
e 134 154
e 134 155
e 134 157
e 134 162
e 134 167
e 134 171
e 134 179
e 134 183
e 134 185
e 134 186
e 134 189
e 134 198
e 135 142
e 135 143
e 135 147
e 135 152
e 135 154
e 135 161
e 135 165
e 135 168
e 135 181
e 135 187
e 135 196
e 135 198
e 136 138
e 136 141
e 136 159
e 136 160
e 136 162
e 136 165
e 136 168
e 136 173
e 136 186
e 136 187
e 136 190
e 137 147
e 137 148
e 137 149
e 137 152
e 137 153
e 137 166
e 137 173
e 137 175
e 137 180
e 137 188
e 137 189
e 137 200
e 138 141
e 138 142
e 138 145
e 138 146
e 138 154
e 138 156
e 138 163
e 138 165
e 138 167
e 138 174
e 138 175
e 138 176
e 138 183
e 138 187
e 138 192
e 138 193
e 138 194
e 138 196
e 139 146
e 139 150
e 139 157
e 139 167
e 139 175
e 139 186
e 139 194
e 140 150
e 140 156
e 140 160
e 140 164
e 140 177
e 140 182
e 140 183
e 140 186
e 141 142
e 141 145
e 141 150
e 141 153
e 141 156
e 141 166
e 141 169
e 141 170
e 141 174
e 141 177
e 141 184
e 141 191
e 141 192
e 142 145
e 142 147
e 142 148
e 142 150
e 142 155
e 142 156
e 142 165
e 142 167
e 142 195
e 143 154
e 143 159
e 143 163
e 143 168
e 143 170
e 143 171
e 143 177
e 143 180
e 143 183
e 143 193
e 143 198
e 144 145
e 144 148
e 144 163
e 144 169
e 144 176
e 144 193
e 144 195
e 145 154
e 145 158
e 145 164
e 145 171
e 145 180
e 145 189
e 145 190
e 145 198
e 146 149
e 146 154
e 146 165
e 146 168
e 146 171
e 146 177
e 146 179
e 146 184
e 146 199
e 147 162
e 147 168
e 147 176
e 147 178
e 147 180
e 147 194
e 147 199
e 148 159
e 148 160
e 148 162
e 148 165
e 148 167
e 148 169
e 148 176
e 148 179
e 148 186
e 148 190
e 149 153
e 149 155
e 149 164
e 149 170
e 149 175
e 149 185
e 149 190
e 149 193
e 149 194
e 149 198
e 150 155
e 150 161
e 150 163
e 150 166
e 150 167
e 150 169
e 150 176
e 150 178
e 150 183
e 150 186
e 150 188
e 150 189
e 150 197
e 151 152
e 151 153
e 151 156
e 151 158
e 151 174
e 151 179
e 151 186
e 151 196
e 151 197
e 152 153
e 152 154
e 152 161
e 152 165
e 152 169
e 152 177
e 152 178
e 152 179
e 152 180
e 152 185
e 152 190
e 152 195
e 153 155
e 153 167
e 153 178
e 153 179
e 153 184
e 153 185
e 153 187
e 153 188
e 153 190
e 153 199
e 153 200
e 154 165
e 154 167
e 154 173
e 154 184
e 154 195
e 155 162
e 155 170
e 155 172
e 155 174
e 155 190
e 155 192
e 155 193
e 156 161
e 156 168
e 156 169
e 156 177
e 156 188
e 156 190
e 156 196
e 157 160
e 157 167
e 157 171
e 157 174
e 157 181
e 157 198
e 158 162
e 158 163
e 158 169
e 158 182
e 158 186
e 158 187
e 158 189
e 158 193
e 158 198
e 158 199
e 159 172
e 159 175
e 159 180
e 159 182
e 159 184
e 159 190
e 159 198
e 160 161
e 160 162
e 160 165
e 160 169
e 160 173
e 160 178
e 160 185
e 160 189
e 160 190
e 160 194
e 161 164
e 161 167
e 161 171
e 161 182
e 161 183
e 161 184
e 161 191
e 161 194
e 161 195
e 162 164
e 162 172
e 162 179
e 162 183
e 162 184
e 162 194
e 163 170
e 163 173
e 163 174
e 163 179
e 163 182
e 163 183
e 163 192
e 163 194
e 163 197
e 164 173
e 164 177
e 164 185
e 164 187
e 164 191
e 164 198
e 165 170
e 165 171
e 165 173
e 165 175
e 165 176
e 165 179
e 165 190
e 165 195
e 165 199
e 166 169
e 166 173
e 166 184
e 166 197
e 166 200
e 167 170
e 167 173
e 167 176
e 167 180
e 167 189
e 167 190
e 167 197
e 167 199
e 168 171
e 168 173
e 168 174
e 168 175
e 168 176
e 168 178
e 168 180
e 168 182
e 168 187
e 168 188
e 168 189
e 168 191
e 168 193
e 168 195
e 168 198
e 169 172
e 169 178
e 169 189
e 169 194
e 169 197
e 170 177
e 170 189
e 170 193
e 170 194
e 170 196
e 170 199
e 171 178
e 171 182
e 171 185
e 171 187
e 171 195
e 172 175
e 172 178
e 172 188
e 172 189
e 172 194
e 172 195
e 172 198
e 173 174
e 173 177
e 173 179
e 173 180
e 173 183
e 173 185
e 173 191
e 173 198
e 174 177
e 174 181
e 174 182
e 174 183
e 174 187
e 174 188
e 174 191
e 174 195
e 174 196
e 175 177
e 175 178
e 175 187
e 175 197
e 175 199
e 176 179
e 176 196
e 177 180
e 177 182
e 177 185
e 178 190
e 178 194
e 179 190
e 179 191
e 179 193
e 180 184
e 180 187
e 180 191
e 180 199
e 181 184
e 181 185
e 181 187
e 181 188
e 181 190
e 181 191
e 181 192
e 181 193
e 182 183
e 182 193
e 182 194
e 182 196
e 183 192
e 183 196
e 183 197
e 183 200
e 184 186
e 184 192
e 184 193
e 184 195
e 184 196
e 184 198
e 185 194
e 185 199
e 185 200
e 186 187
e 186 194
e 186 197
e 187 197
e 188 196
e 189 199
e 190 194
e 190 199
e 190 200
e 191 193
e 191 196
e 192 193
e 193 196
e 193 198
e 193 200
e 194 200
e 195 197
e 195 199
e 195 200
e 196 200
e 197 198